1 2 4 9 8 3 2 1 5 7 1 2 9 3
5 3 7 2 5 1 3 4 6 6 6 1 9
6 1 4 7 7 1 6 5 9 1 3 4
5 2 1 6 5 4 2 1 2 1 3
9 1 1 2 1 3 6 8 2 5
3 5 4 7 8 3 1 2 5
2 6 1 7 9 5 1 4
9 4 2 1 1 7 8
3 3 5 1 6 4
9 1 8 5 2
2 1 8 1
5 4 3
9 6
7
